%chk=water_test.chk
# b3lyp/3-21g geom=connectivity

water_test

0 1
 O                 -0.59748423   -0.30398322    0.00000000
 H                  0.36251577   -0.30398322    0.00000000
 H                 -0.91793882    0.60095261    0.00000000

 1 2 1.0 3 1.0
 2
 3

