%chk=water.chk
# opt hf/6-31g(d) geom=connectivity

water test

0 1
 O                  0.54609928    1.07092197    0.00000000
 H                  1.50609928    1.07092197    0.00000000
 H                  0.22564469    1.97585780    0.00000000

 1 2 1.0 3 1.0
 2
 3

